InSb 4.0000%  uni-strain along 110, volume=71.457937476
1.0
-.110673688  3.258406308  3.369080000
3.258406308  -.110673688  3.369080000
3.147732619  3.147732619  0.0
   In   Sb
    1    1
Cartesian
  0.000000   0.000000   0.000000   
  1.573866309  1.573866309  1.784146319
