InSb 0% (001)-biaxial strain, volume=8.499120007
1.0
  0.000000000 3.239500000 3.239500000                            
  3.239500000 0.000000000 3.239500000                           
  3.239500000 3.239500000 0.000000000
   In   Sb
    1    1
Direct
  0.000000   0.000000   0.000000   
  0.250000   0.250000   0.250000   
